54360
53, 34, 54, 47, 30, 4, 18, 12, 14, 9, 2, 42, 33, 1, 27, 31, 25, 11, 45, 52, 15, 46, 36, 39, 16, 10, 22, 29, 21, 23, 17, 48, 19, 32, 8, 44, 38, 50, 20, 7, 37, 5, 24, 35, 41, 13, 51, 40, 43, 3, 6, 28, 55, 26, 49
